(set-logic QF_NIA)

(define-fun arc_mul ((x Int) (y Int)) (Int)
    (if (or (= x -1) (= y -1))
        -1
        (+ x y)))

(define-fun arc_plus ((x Int) (y Int)) (Int)
    (ite (> x y)
        x
        y))

(define-fun arc_gr ((x Int) (y Int)) (Bool)
    (or (> x y) (and (= x -1) (= y -1))))
